Medium-instances_NetworkFacilityLocation/2023-03-27_20hr-25min-09sec/Nodes40_Arcs55_LocNodes30/Formulation-1Instance-3.lp
\ Model LocPrice
\ LP format - for model browsing. Use MPS format to capture full model detail.
Maximize
  - 161 x[3] - 165 x[4] - 172 x[5] - 170 x[6] - 157 x[8] - 157 x[9]
   - 190 x[11] - 159 x[12] - 169 x[13] - 193 x[14] - 167 x[16] - 166 x[17]
   - 162 x[20] - 196 x[21] - 191 x[22] - 190 x[23] - 171 x[24] - 170 x[25]
   - 152 x[26] - 166 x[28] - 190 x[29] - 193 x[30] - 162 x[32] - 155 x[33]
   - 159 x[34] - 183 x[35] - 161 x[37] - 170 x[38] - 177 x[39] - 194 x[40]
   - 3.568481330819385 Q[3] - 3.912790433753084 Q[4]
   - 4.225908071296241 Q[5] - 4.951633441573986 Q[6]
   - 4.906853346600348 Q[8] - 3.798983121880094 Q[9]
   - 3.74574274491479 Q[11] - 3.857956422673276 Q[12]
   - 3.221706237097206 Q[13] - 4.660313789663115 Q[14]
   - 4.776914960037997 Q[16] - 3.751163439333054 Q[17]
   - 4.450574653088061 Q[20] - 4.483359289147852 Q[21]
   - 3.879796190105997 Q[22] - 4.711514644320047 Q[23]
   - 4.957601698790645 Q[24] - 4.9186823569969 Q[25]
   - 3.86986867365018 Q[26] - 3.36631951957791 Q[28]
   - 4.573427014622258 Q[29] - 4.890116707294442 Q[30]
   - 4.03261014051171 Q[32] - 3.56037698774709 Q[33]
   - 4.819160059442845 Q[34] - 4.732399047670378 Q[35]
   - 3.978267146048287 Q[37] - 4.740499967640629 Q[38]
   - 3.778997257744439 Q[39] - 3.052403255878783 Q[40] + [ 2 pi[3] * Q[3]
   + 2 pi[4] * Q[4] + 2 pi[5] * Q[5] + 2 pi[6] * Q[6] + 2 pi[8] * Q[8]
   + 2 pi[9] * Q[9] + 2 pi[11] * Q[11] + 2 pi[12] * Q[12]
   + 2 pi[13] * Q[13] + 2 pi[14] * Q[14] + 2 pi[16] * Q[16]
   + 2 pi[17] * Q[17] + 2 pi[20] * Q[20] + 2 pi[21] * Q[21]
   + 2 pi[22] * Q[22] + 2 pi[23] * Q[23] + 2 pi[24] * Q[24]
   + 2 pi[25] * Q[25] + 2 pi[26] * Q[26] + 2 pi[28] * Q[28]
   + 2 pi[29] * Q[29] + 2 pi[30] * Q[30] + 2 pi[32] * Q[32]
   + 2 pi[33] * Q[33] + 2 pi[34] * Q[34] + 2 pi[35] * Q[35]
   + 2 pi[37] * Q[37] + 2 pi[38] * Q[38] + 2 pi[39] * Q[39]
   + 2 pi[40] * Q[40] ] / 2 
Subject To
 R0: Q[3] + Q[4] + Q[5] + Q[6] + Q[8] + Q[9] + Q[11] + Q[12] + Q[13]
   + Q[14] + Q[16] + Q[17] + Q[20] + Q[21] + Q[22] + Q[23] + Q[24] + Q[25]
   + Q[26] + Q[28] + Q[29] + Q[30] + Q[32] + Q[33] + Q[34] + Q[35] + Q[37]
   + Q[38] + Q[39] + Q[40] <= 2625
 R1: - 148 x[3] + Q[3] <= 0
 R2: - 133 x[4] + Q[4] <= 0
 R3: - 135 x[5] + Q[5] <= 0
 R4: - 109 x[6] + Q[6] <= 0
 R5: - 109 x[8] + Q[8] <= 0
 R6: - 183 x[9] + Q[9] <= 0
 R7: - 170 x[11] + Q[11] <= 0
 R8: - 111 x[12] + Q[12] <= 0
 R9: - 179 x[13] + Q[13] <= 0
 R10: - 178 x[14] + Q[14] <= 0
 R11: - 104 x[16] + Q[16] <= 0
 R12: - 189 x[17] + Q[17] <= 0
 R13: - 162 x[20] + Q[20] <= 0
 R14: - 161 x[21] + Q[21] <= 0
 R15: - 124 x[22] + Q[22] <= 0
 R16: - 176 x[23] + Q[23] <= 0
 R17: - 142 x[24] + Q[24] <= 0
 R18: - 178 x[25] + Q[25] <= 0
 R19: - 179 x[26] + Q[26] <= 0
 R20: - 159 x[28] + Q[28] <= 0
 R21: - 153 x[29] + Q[29] <= 0
 R22: - 147 x[30] + Q[30] <= 0
 R23: - 101 x[32] + Q[32] <= 0
 R24: - 162 x[33] + Q[33] <= 0
 R25: - 101 x[34] + Q[34] <= 0
 R26: - 184 x[35] + Q[35] <= 0
 R27: - 139 x[37] + Q[37] <= 0
 R28: - 163 x[38] + Q[38] <= 0
 R29: - 189 x[39] + Q[39] <= 0
 R30: - 189 x[40] + Q[40] <= 0
 node[33]: - Q[33] + f[33,5] + f[33,26] = 0
 node[4]: - Q[4] + f[4,3] = 0
 node[5]: - Q[5] + f[5,2] - f[7,5] - f[9,5] - f[33,5] = 0
 node[37]: - Q[37] + f[37,36] - f[6,37] + f[37,13] = 0
 node[8]: - Q[8] + f[8,6] = 0
 node[16]: - Q[16] + f[16,11] - f[28,16] = 0
 node[22]: - Q[22] + f[22,21] - f[30,22] - f[35,22] + f[22,2] = 0
 node[30]: - Q[30] + f[30,22] - f[18,30] = 0
 node[12]: - Q[12] + f[12,6] - f[39,12] - S[12] = 0
 node[13]: - Q[13] + f[13,2] - f[32,13] - f[37,13] - S[13] = 0
 node[38]: - Q[38] + f[38,28] + f[38,27] - f[2,38] - f[23,38] + f[38,7]
   - S[38] = 0
 node[23]: - Q[23] + f[23,6] + f[23,38] - S[23] = 0
 node[34]: - Q[34] + f[34,31] + D[34] = 0
 node[3]: - Q[3] + f[3,2] - f[4,3] + D[3] = 0
 node[35]: - Q[35] + f[35,29] + f[35,22] + D[35] = 0
 node[40]: - Q[40] + f[40,6] + D[40] = 0
 node[17]: - Q[17] + f[17,7] + f[17,29] + D[17] = 0
 node[21]: - Q[21] + f[21,11] - f[22,21] + D[21] = 0
 node[26]: - Q[26] + f[26,9] - f[32,26] - f[33,26] + D[26] = 0
 node[28]: - Q[28] + f[28,16] - f[31,28] - f[38,28] + D[28] = 0
 node[29]: - Q[29] + f[29,27] - f[35,29] - f[17,29] - f[1,29] + D[29] = 0
 node[32]: - Q[32] + f[32,26] + f[32,36] + f[32,13] + D[32] - S[32] = 0
 node[6]: - Q[6] + f[6,2] - f[8,6] - f[12,6] - f[15,6] - f[23,6] - f[36,6]
   - f[40,6] + f[6,37] + D[6] - S[6] = 0
 node[39]: - Q[39] + f[39,12] + D[39] - S[39] = 0
 node[9]: - Q[9] + f[9,5] - f[11,9] - f[20,9] - f[26,9] + D[9] - S[9] = 0
 node[11]: - Q[11] + f[11,9] - f[16,11] - f[21,11] + D[11] - S[11] = 0
 node[14]: - Q[14] + f[14,2] + D[14] - S[14] = 0
 node[20]: - Q[20] + f[20,9] - f[27,20] + f[20,24] + D[20] - S[20] = 0
 node[24]: - Q[24] + f[24,19] - f[20,24] + D[24] - S[24] = 0
 node[25]: - Q[25] + f[25,2] + D[25] - S[25] = 0
 node[1]: - f[2,1] - f[19,1] + f[1,29] = 0
 node[18]: f[18,15] + f[18,30] = 0
 node[27]: f[27,20] - f[29,27] - f[38,27] = 0
 node[2]: f[2,1] - f[3,2] - f[5,2] - f[6,2] - f[10,2] - f[13,2] - f[14,2]
   - f[25,2] + f[2,38] - f[22,2] - S[2] = 0
 node[7]: f[7,5] - f[17,7] - f[38,7] - S[7] = 0
 node[10]: f[10,2] + f[10,15] - S[10] = 0
 node[15]: f[15,6] - f[18,15] - f[10,15] - S[15] = 0
 node[19]: f[19,1] - f[24,19] - S[19] = 0
 node[36]: f[36,6] - f[37,36] - f[32,36] + D[36] - S[36] = 0
 node[31]: f[31,28] - f[34,31] + D[31] - S[31] = 0
 Cost_Flow[2,1]: - pi[1] + pi[2] + 0.1882869097420266 f[2,1] - mu_f[2,1]
   = -2.011992493814384
 Cost_Flow[3,2]: - pi[2] + pi[3] + 0.9475059515343516 f[3,2] - mu_f[3,2]
   = -1.281390560865832
 Cost_Flow[4,3]: - pi[3] + pi[4] + 0.5451011063144848 f[4,3] - mu_f[4,3]
   = -1.096181999415088
 Cost_Flow[5,2]: - pi[2] + pi[5] + 0.0290972007610797 f[5,2] - mu_f[5,2]
   = -0.3246932701183263
 Cost_Flow[6,2]: - pi[2] + pi[6] + 0.3883923673288943 f[6,2] - mu_f[6,2]
   = -0.4259064238492263
 Cost_Flow[7,5]: - pi[5] + pi[7] + 1.557324233874114 f[7,5] - mu_f[7,5]
   = -1.099470886798946
 Cost_Flow[8,6]: - pi[6] + pi[8] + 0.3680226291375646 f[8,6] - mu_f[8,6]
   = -2.833869000379986
 Cost_Flow[9,5]: - pi[5] + pi[9] + 0.4124207796317736 f[9,5] - mu_f[9,5]
   = -1.743148858730016
 Cost_Flow[10,2]: - pi[2] + pi[10] + 1.813777131225959 f[10,2] - mu_f[10,2]
   = -0.3758380940199924
 Cost_Flow[11,9]: - pi[9] + pi[11] + 0.2302312687084975 f[11,9]
   - mu_f[11,9] = -1.608618422809712
 Cost_Flow[12,6]: - pi[6] + pi[12] + 0.7444143692610383 f[12,6]
   - mu_f[12,6] = -1.075399258827928
 Cost_Flow[13,2]: - pi[2] + pi[13] + 0.2348420935175441 f[13,2]
   - mu_f[13,2] = -0.3223962707601915
 Cost_Flow[14,2]: - pi[2] + pi[14] + 1.364120737675638 f[14,2] - mu_f[14,2]
   = -1.053359818001601
 Cost_Flow[15,6]: - pi[6] + pi[15] + 0.0401329766851952 f[15,6]
   - mu_f[15,6] = -0.6333695482044097
 Cost_Flow[16,11]: - pi[11] + pi[16] + 1.689106354475569 f[16,11]
   - mu_f[16,11] = -2.421729824547945
 Cost_Flow[17,7]: - pi[7] + pi[17] + 0.2717337512574167 f[17,7]
   - mu_f[17,7] = -2.127785179221098
 Cost_Flow[18,15]: - pi[15] + pi[18] + 1.711318777097854 f[18,15]
   - mu_f[18,15] = -0.8901109076960017
 Cost_Flow[19,1]: - pi[1] + pi[19] + 1.154493896924366 f[19,1] - mu_f[19,1]
   = -2.350082017084628
 Cost_Flow[20,9]: - pi[9] + pi[20] + 0.7720084456645357 f[20,9]
   - mu_f[20,9] = -1.290844162772286
 Cost_Flow[21,11]: - pi[11] + pi[21] + 0.9634831422716723 f[21,11]
   - mu_f[21,11] = -2.942358425414735
 Cost_Flow[22,21]: - pi[21] + pi[22] + 0.7928311763184606 f[22,21]
   - mu_f[22,21] = -2.350214473679715
 Cost_Flow[23,6]: - pi[6] + pi[23] + 0.5961411526811093 f[23,6]
   - mu_f[23,6] = -1.13057580820745
 Cost_Flow[24,19]: - pi[19] + pi[24] + 1.928015768641639 f[24,19]
   - mu_f[24,19] = -1.456726133338222
 Cost_Flow[25,2]: - pi[2] + pi[25] + 0.8239410571910393 f[25,2]
   - mu_f[25,2] = -1.436568823161271
 Cost_Flow[26,9]: - pi[9] + pi[26] + 0.9949281992213221 f[26,9]
   - mu_f[26,9] = -1.711710871868718
 Cost_Flow[27,20]: - pi[20] + pi[27] + 1.693405076217687 f[27,20]
   - mu_f[27,20] = -0.402729239984865
 Cost_Flow[28,16]: - pi[16] + pi[28] + 0.1542739512060798 f[28,16]
   - mu_f[28,16] = -0.6552225124512706
 Cost_Flow[29,27]: - pi[27] + pi[29] + 0.2038399860164135 f[29,27]
   - mu_f[29,27] = -0.9887451756888261
 Cost_Flow[30,22]: - pi[22] + pi[30] + 1.948211024813596 f[30,22]
   - mu_f[30,22] = -1.553579882990406
 Cost_Flow[31,28]: - pi[28] + pi[31] + 1.359098280740884 f[31,28]
   - mu_f[31,28] = -0.5107358410370413
 Cost_Flow[32,26]: - pi[26] + pi[32] + 0.7289111752728792 f[32,26]
   - mu_f[32,26] = -2.71246999381285
 Cost_Flow[33,5]: - pi[5] + pi[33] + 1.958493447298187 f[33,5] - mu_f[33,5]
   = -0.4997430652116494
 Cost_Flow[34,31]: - pi[31] + pi[34] + 1.000356847020349 f[34,31]
   - mu_f[34,31] = -2.487852533847984
 Cost_Flow[35,29]: - pi[29] + pi[35] + 0.9089372181939701 f[35,29]
   - mu_f[35,29] = -0.5610177285646082
 Cost_Flow[36,6]: - pi[6] + pi[36] + 0.4375809353502895 f[36,6]
   - mu_f[36,6] = -1.644114435916429
 Cost_Flow[37,36]: - pi[36] + pi[37] + 1.102781083033594 f[37,36]
   - mu_f[37,36] = -0.4686768344477422
 Cost_Flow[38,28]: - pi[28] + pi[38] + 0.6295612255577425 f[38,28]
   - mu_f[38,28] = -1.599250482161777
 Cost_Flow[39,12]: - pi[12] + pi[39] + 1.338385671392701 f[39,12]
   - mu_f[39,12] = -0.3145692071802749
 Cost_Flow[40,6]: - pi[6] + pi[40] + 0.5066894104024007 f[40,6]
   - mu_f[40,6] = -1.891016278829795
 Cost_Flow[6,37]: pi[6] - pi[37] + 0.9995998118948497 f[6,37] - mu_f[6,37]
   = -1.531759968553602
 Cost_Flow[20,24]: pi[20] - pi[24] + 1.119466011044051 f[20,24]
   - mu_f[20,24] = -2.284999355067561
 Cost_Flow[18,30]: pi[18] - pi[30] + 0.8488078200625588 f[18,30]
   - mu_f[18,30] = -0.5648738263162897
 Cost_Flow[35,22]: - pi[22] + pi[35] + 0.0681836560384961 f[35,22]
   - mu_f[35,22] = -2.366666788291043
 Cost_Flow[38,27]: - pi[27] + pi[38] + 0.1854959675602681 f[38,27]
   - mu_f[38,27] = -1.90109447110461
 Cost_Flow[10,15]: pi[10] - pi[15] + 1.95510680815931 f[10,15]
   - mu_f[10,15] = -2.121657940273538
 Cost_Flow[2,38]: pi[2] - pi[38] + 0.8424543342385378 f[2,38] - mu_f[2,38]
   = -2.489087345907558
 Cost_Flow[23,38]: pi[23] - pi[38] + 0.0465811949899193 f[23,38]
   - mu_f[23,38] = -1.410414193914436
 Cost_Flow[32,36]: pi[32] - pi[36] + 0.5023795380047573 f[32,36]
   - mu_f[32,36] = -0.1305079729579625
 Cost_Flow[22,2]: - pi[2] + pi[22] + 0.1896066843337807 f[22,2]
   - mu_f[22,2] = -1.702664544392444
 Cost_Flow[38,7]: - pi[7] + pi[38] + 0.0102220867683065 f[38,7]
   - mu_f[38,7] = -1.415759726062677
 Cost_Flow[32,13]: - pi[13] + pi[32] + 0.6732871978586654 f[32,13]
   - mu_f[32,13] = -2.050018659672399
 Cost_Flow[37,13]: - pi[13] + pi[37] + 0.4471111311467562 f[37,13]
   - mu_f[37,13] = -2.506942378434104
 Cost_Flow[17,29]: pi[17] - pi[29] + 0.9503193831933801 f[17,29]
   - mu_f[17,29] = -2.013014637247444
 Cost_Flow[33,26]: - pi[26] + pi[33] + 1.255409399257686 f[33,26]
   - mu_f[33,26] = -1.058930213340746
 Cost_Flow[1,29]: pi[1] - pi[29] + 1.68253553591372 f[1,29] - mu_f[1,29]
   = -0.6572360213924201
 Cost_Demand[3]: pi[3] + 3.965669295301667 D[3] - mu_D[3] = 1492
 Cost_Demand[6]: pi[6] + 3.44267220387863 D[6] - mu_D[6] = 1495
 Cost_Demand[9]: pi[9] + 3.164859489674917 D[9] - mu_D[9] = 1389
 Cost_Demand[11]: pi[11] + 3.085303246326557 D[11] - mu_D[11] = 1352
 Cost_Demand[14]: pi[14] + 3.792113711544687 D[14] - mu_D[14] = 1386
 Cost_Demand[17]: pi[17] + 3.143075991802228 D[17] - mu_D[17] = 1435
 Cost_Demand[20]: pi[20] + 3.451387066988782 D[20] - mu_D[20] = 1428
 Cost_Demand[21]: pi[21] + 3.450978966430096 D[21] - mu_D[21] = 1324
 Cost_Demand[24]: pi[24] + 3.541880645070802 D[24] - mu_D[24] = 1313
 Cost_Demand[25]: pi[25] + 3.992912178831157 D[25] - mu_D[25] = 1450
 Cost_Demand[26]: pi[26] + 3.50001598385073 D[26] - mu_D[26] = 1331
 Cost_Demand[28]: pi[28] + 3.077214563869145 D[28] - mu_D[28] = 1308
 Cost_Demand[29]: pi[29] + 3.711378659567374 D[29] - mu_D[29] = 1422
 Cost_Demand[31]: pi[31] + 3.747290445388802 D[31] - mu_D[31] = 1313
 Cost_Demand[32]: pi[32] + 3.843266089866001 D[32] - mu_D[32] = 1406
 Cost_Demand[34]: pi[34] + 3.006493046253554 D[34] - mu_D[34] = 1395
 Cost_Demand[35]: pi[35] + 3.927740083503118 D[35] - mu_D[35] = 1355
 Cost_Demand[36]: pi[36] + 3.699436913333309 D[36] - mu_D[36] = 1387
 Cost_Demand[39]: pi[39] + 3.676104518816143 D[39] - mu_D[39] = 1308
 Cost_Demand[40]: pi[40] + 3.686165584302202 D[40] - mu_D[40] = 1437
 Cost_Supply[2]: - pi[2] + 0.9570107462353966 S[2] - mu_S[2]
   = -1.149243103235731
 Cost_Supply[6]: - pi[6] + 0.3448886059727253 S[6] - mu_S[6]
   = -1.694248983954088
 Cost_Supply[7]: - pi[7] + 0.1400926588775101 S[7] - mu_S[7]
   = -1.140483083389526
 Cost_Supply[9]: - pi[9] + 0.8836421003231902 S[9] - mu_S[9]
   = -1.954271634622152
 Cost_Supply[10]: - pi[10] + 0.4876085695282109 S[10] - mu_S[10]
   = -1.511613267092316
 Cost_Supply[11]: - pi[11] + 0.5904184284448396 S[11] - mu_S[11]
   = -1.263498685389832
 Cost_Supply[12]: - pi[12] + 0.7357258020469993 S[12] - mu_S[12]
   = -1.02955757459153
 Cost_Supply[13]: - pi[13] + 0.0867373864637436 S[13] - mu_S[13]
   = -1.330691084644358
 Cost_Supply[14]: - pi[14] + 0.2260827937473544 S[14] - mu_S[14]
   = -1.94483980050872
 Cost_Supply[15]: - pi[15] + 0.7186461050625753 S[15] - mu_S[15]
   = -1.397112715203216
 Cost_Supply[19]: - pi[19] + 0.8381216374118224 S[19] - mu_S[19]
   = -1.889713355857513
 Cost_Supply[20]: - pi[20] + 0.3625929393480544 S[20] - mu_S[20]
   = -1.07246178988822
 Cost_Supply[23]: - pi[23] + 0.5087388072246707 S[23] - mu_S[23]
   = -1.264894100466718
 Cost_Supply[24]: - pi[24] + 0.9533661781006005 S[24] - mu_S[24]
   = -1.93089204585045
 Cost_Supply[25]: - pi[25] + 0.6432203411372533 S[25] - mu_S[25]
   = -1.36800862622584
 Cost_Supply[31]: - pi[31] + 0.985585559113951 S[31] - mu_S[31]
   = -1.094978236931963
 Cost_Supply[32]: - pi[32] + 0.7485333057792221 S[32] - mu_S[32]
   = -1.745006602837183
 Cost_Supply[36]: - pi[36] + 0.6482584711121427 S[36] - mu_S[36]
   = -1.749775169269391
 Cost_Supply[38]: - pi[38] + 0.4035828318862649 S[38] - mu_S[38]
   = -1.243878510166957
 Cost_Supply[39]: - pi[39] + 0.4385416643217412 S[39] - mu_S[39]
   = -1.60909836701489
Bounds
Binaries
 x[3] x[4] x[5] x[6] x[8] x[9] x[11] x[12] x[13] x[14] x[16] x[17] x[20]
 x[21] x[22] x[23] x[24] x[25] x[26] x[28] x[29] x[30] x[32] x[33] x[34]
 x[35] x[37] x[38] x[39] x[40]
SOS
 s0:  S1 :: f[2,1]:1 mu_f[2,1]:2
 s1:  S1 :: f[3,2]:1 mu_f[3,2]:2
 s2:  S1 :: f[4,3]:1 mu_f[4,3]:2
 s3:  S1 :: f[5,2]:1 mu_f[5,2]:2
 s4:  S1 :: f[6,2]:1 mu_f[6,2]:2
 s5:  S1 :: f[7,5]:1 mu_f[7,5]:2
 s6:  S1 :: f[8,6]:1 mu_f[8,6]:2
 s7:  S1 :: f[9,5]:1 mu_f[9,5]:2
 s8:  S1 :: f[10,2]:1 mu_f[10,2]:2
 s9:  S1 :: f[11,9]:1 mu_f[11,9]:2
 s10:  S1 :: f[12,6]:1 mu_f[12,6]:2
 s11:  S1 :: f[13,2]:1 mu_f[13,2]:2
 s12:  S1 :: f[14,2]:1 mu_f[14,2]:2
 s13:  S1 :: f[15,6]:1 mu_f[15,6]:2
 s14:  S1 :: f[16,11]:1 mu_f[16,11]:2
 s15:  S1 :: f[17,7]:1 mu_f[17,7]:2
 s16:  S1 :: f[18,15]:1 mu_f[18,15]:2
 s17:  S1 :: f[19,1]:1 mu_f[19,1]:2
 s18:  S1 :: f[20,9]:1 mu_f[20,9]:2
 s19:  S1 :: f[21,11]:1 mu_f[21,11]:2
 s20:  S1 :: f[22,21]:1 mu_f[22,21]:2
 s21:  S1 :: f[23,6]:1 mu_f[23,6]:2
 s22:  S1 :: f[24,19]:1 mu_f[24,19]:2
 s23:  S1 :: f[25,2]:1 mu_f[25,2]:2
 s24:  S1 :: f[26,9]:1 mu_f[26,9]:2
 s25:  S1 :: f[27,20]:1 mu_f[27,20]:2
 s26:  S1 :: f[28,16]:1 mu_f[28,16]:2
 s27:  S1 :: f[29,27]:1 mu_f[29,27]:2
 s28:  S1 :: f[30,22]:1 mu_f[30,22]:2
 s29:  S1 :: f[31,28]:1 mu_f[31,28]:2
 s30:  S1 :: f[32,26]:1 mu_f[32,26]:2
 s31:  S1 :: f[33,5]:1 mu_f[33,5]:2
 s32:  S1 :: f[34,31]:1 mu_f[34,31]:2
 s33:  S1 :: f[35,29]:1 mu_f[35,29]:2
 s34:  S1 :: f[36,6]:1 mu_f[36,6]:2
 s35:  S1 :: f[37,36]:1 mu_f[37,36]:2
 s36:  S1 :: f[38,28]:1 mu_f[38,28]:2
 s37:  S1 :: f[39,12]:1 mu_f[39,12]:2
 s38:  S1 :: f[40,6]:1 mu_f[40,6]:2
 s39:  S1 :: f[6,37]:1 mu_f[6,37]:2
 s40:  S1 :: f[20,24]:1 mu_f[20,24]:2
 s41:  S1 :: f[18,30]:1 mu_f[18,30]:2
 s42:  S1 :: f[35,22]:1 mu_f[35,22]:2
 s43:  S1 :: f[38,27]:1 mu_f[38,27]:2
 s44:  S1 :: f[10,15]:1 mu_f[10,15]:2
 s45:  S1 :: f[2,38]:1 mu_f[2,38]:2
 s46:  S1 :: f[23,38]:1 mu_f[23,38]:2
 s47:  S1 :: f[32,36]:1 mu_f[32,36]:2
 s48:  S1 :: f[22,2]:1 mu_f[22,2]:2
 s49:  S1 :: f[38,7]:1 mu_f[38,7]:2
 s50:  S1 :: f[32,13]:1 mu_f[32,13]:2
 s51:  S1 :: f[37,13]:1 mu_f[37,13]:2
 s52:  S1 :: f[17,29]:1 mu_f[17,29]:2
 s53:  S1 :: f[33,26]:1 mu_f[33,26]:2
 s54:  S1 :: f[1,29]:1 mu_f[1,29]:2
 s55:  S1 :: D[3]:1 mu_D[3]:2
 s56:  S1 :: D[6]:1 mu_D[6]:2
 s57:  S1 :: D[9]:1 mu_D[9]:2
 s58:  S1 :: D[11]:1 mu_D[11]:2
 s59:  S1 :: D[14]:1 mu_D[14]:2
 s60:  S1 :: D[17]:1 mu_D[17]:2
 s61:  S1 :: D[20]:1 mu_D[20]:2
 s62:  S1 :: D[21]:1 mu_D[21]:2
 s63:  S1 :: D[24]:1 mu_D[24]:2
 s64:  S1 :: D[25]:1 mu_D[25]:2
 s65:  S1 :: D[26]:1 mu_D[26]:2
 s66:  S1 :: D[28]:1 mu_D[28]:2
 s67:  S1 :: D[29]:1 mu_D[29]:2
 s68:  S1 :: D[31]:1 mu_D[31]:2
 s69:  S1 :: D[32]:1 mu_D[32]:2
 s70:  S1 :: D[34]:1 mu_D[34]:2
 s71:  S1 :: D[35]:1 mu_D[35]:2
 s72:  S1 :: D[36]:1 mu_D[36]:2
 s73:  S1 :: D[39]:1 mu_D[39]:2
 s74:  S1 :: D[40]:1 mu_D[40]:2
 s75:  S1 :: S[2]:1 mu_S[2]:2
 s76:  S1 :: S[6]:1 mu_S[6]:2
 s77:  S1 :: S[7]:1 mu_S[7]:2
 s78:  S1 :: S[9]:1 mu_S[9]:2
 s79:  S1 :: S[10]:1 mu_S[10]:2
 s80:  S1 :: S[11]:1 mu_S[11]:2
 s81:  S1 :: S[12]:1 mu_S[12]:2
 s82:  S1 :: S[13]:1 mu_S[13]:2
 s83:  S1 :: S[14]:1 mu_S[14]:2
 s84:  S1 :: S[15]:1 mu_S[15]:2
 s85:  S1 :: S[19]:1 mu_S[19]:2
 s86:  S1 :: S[20]:1 mu_S[20]:2
 s87:  S1 :: S[23]:1 mu_S[23]:2
 s88:  S1 :: S[24]:1 mu_S[24]:2
 s89:  S1 :: S[25]:1 mu_S[25]:2
 s90:  S1 :: S[31]:1 mu_S[31]:2
 s91:  S1 :: S[32]:1 mu_S[32]:2
 s92:  S1 :: S[36]:1 mu_S[36]:2
 s93:  S1 :: S[38]:1 mu_S[38]:2
 s94:  S1 :: S[39]:1 mu_S[39]:2
End
